certificates/rado_a11_c161_N30.cnf
c Rad2 upper bound instance: x1 + 11*x2 - x3 = 161, interval [1,30]
p cnf 30 162
1 5 15 0
-1 -5 -15 0
1 16 0
-1 -16 0
1 17 27 0
-1 -17 -27 0
2 6 15 0
-2 -6 -15 0
2 16 17 0
-2 -16 -17 0
2 17 28 0
-2 -17 -28 0
3 7 15 0
-3 -7 -15 0
3 16 18 0
-3 -16 -18 0
3 17 29 0
-3 -17 -29 0
4 8 15 0
-4 -8 -15 0
4 16 19 0
-4 -16 -19 0
4 17 30 0
-4 -17 -30 0
5 9 15 0
-5 -9 -15 0
5 16 20 0
-5 -16 -20 0
6 10 15 0
-6 -10 -15 0
6 16 21 0
-6 -16 -21 0
7 11 15 0
-7 -11 -15 0
7 16 22 0
-7 -16 -22 0
1 8 14 0
-1 -8 -14 0
8 12 15 0
-8 -12 -15 0
8 16 23 0
-8 -16 -23 0
2 9 14 0
-2 -9 -14 0
9 13 15 0
-9 -13 -15 0
9 16 24 0
-9 -16 -24 0
3 10 14 0
-3 -10 -14 0
10 14 15 0
-10 -14 -15 0
10 16 25 0
-10 -16 -25 0
4 11 14 0
-4 -11 -14 0
11 15 0
-11 -15 0
11 16 26 0
-11 -16 -26 0
5 12 14 0
-5 -12 -14 0
12 15 16 0
-12 -15 -16 0
12 16 27 0
-12 -16 -27 0
6 13 14 0
-6 -13 -14 0
13 15 17 0
-13 -15 -17 0
13 16 28 0
-13 -16 -28 0
7 14 0
-7 -14 0
14 15 18 0
-14 -15 -18 0
14 16 29 0
-14 -16 -29 0
8 14 15 0
-8 -14 -15 0
15 19 0
-15 -19 0
15 16 30 0
-15 -16 -30 0
9 14 16 0
-9 -14 -16 0
15 16 20 0
-15 -16 -20 0
10 14 17 0
-10 -14 -17 0
15 17 21 0
-15 -17 -21 0
11 14 18 0
-11 -14 -18 0
15 18 22 0
-15 -18 -22 0
1 13 19 0
-1 -13 -19 0
12 14 19 0
-12 -14 -19 0
15 19 23 0
-15 -19 -23 0
2 13 20 0
-2 -13 -20 0
13 14 20 0
-13 -14 -20 0
15 20 24 0
-15 -20 -24 0
3 13 21 0
-3 -13 -21 0
14 21 0
-14 -21 0
15 21 25 0
-15 -21 -25 0
4 13 22 0
-4 -13 -22 0
14 15 22 0
-14 -15 -22 0
15 22 26 0
-15 -22 -26 0
5 13 23 0
-5 -13 -23 0
14 16 23 0
-14 -16 -23 0
15 23 27 0
-15 -23 -27 0
6 13 24 0
-6 -13 -24 0
14 17 24 0
-14 -17 -24 0
15 24 28 0
-15 -24 -28 0
7 13 25 0
-7 -13 -25 0
14 18 25 0
-14 -18 -25 0
15 25 29 0
-15 -25 -29 0
8 13 26 0
-8 -13 -26 0
14 19 26 0
-14 -19 -26 0
15 26 30 0
-15 -26 -30 0
9 13 27 0
-9 -13 -27 0
14 20 27 0
-14 -20 -27 0
10 13 28 0
-10 -13 -28 0
14 21 28 0
-14 -21 -28 0
11 13 29 0
-11 -13 -29 0
14 22 29 0
-14 -22 -29 0
1 12 30 0
-1 -12 -30 0
12 13 30 0
-12 -13 -30 0
14 23 30 0
-14 -23 -30 0
