certificates/rado_a11_c161_N30.drat
-26 -30 0
d -15 -26 -30 0
16 -30 0
-30 0
26 0
-16 0
1 0
15 0
-5 0
-11 0
-19 0
-22 0
20 0
4 0
7 0
-24 0
-8 0
-3 0
-14 0
9 0
17 0
23 0
18 0
29 0
12 0
21 0
10 0
-13 0
-27 0
0
